c --- [ banner ] -------------------------------------------------------------
c 
c CaDiCaL Radically Simplified CDCL SAT Solver
c Copyright (c) 2016-2021 A. Biere, M. Fleury, N. Froleyks
c 
c Version 1.5.2 a5f15211db36c3956764e18194dd5bd63bf3b5e6
c g++ (GCC) 9.3.0 -Wall -Wextra -O3 -DNDEBUG
c Fri Oct 21 01:27:37 EDT 2022 Linux gra-login3 3.10.0-1160.66.1.el7.x86_64 x86_64
c 
c --- [ limit ] --------------------------------------------------------------
c 
c setting conflict limit to 200000 conflicts (due to '200000')
c 
c --- [ parsing input ] ------------------------------------------------------
c 
c reading DIMACS file from '33.cubes701.adj'
c opening file to read '33.cubes701.adj'
c found 'p cnf 6160 1595475' header
c parsed 1595475 clauses in 19.50 seconds process time
c closing file '33.cubes701.adj'
c after reading 1457566773 bytes 1390.0 MB
c 
c --- [ options ] ------------------------------------------------------------
c 
c all options are set to their default value
c 
c --- [ solving ] ------------------------------------------------------------
c 
c time measured in process time since initialization
c 
c  seconds    reductions  redundant   irredundant
c          MB     restarts       trail       variables
c            level   conflicts       glue         remaining
c 
c * 19.50 1361  0 0   0    0    0  0% 0 1595422 2322 38%
c { 20.91 1420  0 0   0    0    0  0% 0 1595422 2322 38%
c i 21.25 1430 1024 0   0   10    8 37% 1 1595422 2312 38%
c i 23.22 1476 401 0   3   39   32 29% 7 1595422 2306 37%
c i 23.60 1478 333 0   4   50   42 29% 10 1595422 2292 37%
c i 23.61 1478 327 0   4   51   42 29% 10 1595422 2291 37%
c i 23.63 1478 316 0   4   53   43 29% 10 1595422 2290 37%
c i 24.06 1482 246 0  10   74   57 28% 14 1595422 2288 37%
c i 24.48 1485 242 0  13   88   69 28% 30 1595422 2287 37%
c i 24.71 1487 206 0  22  119   93 26% 29 1595422 2276 37%
c i 24.86 1487 197 0  23  132  103 26% 28 1595422 2274 37%
c i 25.07 1488 184 0  25  150  110 26% 28 1595422 2273 37%
c i 25.21 1488 173 0  25  163  122 26% 28 1595422 2272 37%
c i 25.28 1488 169 0  25  191  130 27% 28 1595422 2270 37%
c i 25.30 1488 167 0  25  193  131 27% 28 1595422 2269 37%
c i 25.47 1489 161 0  30  218  151 26% 32 1595422 2268 37%
c i 25.48 1489 161 0  31  219  151 26% 32 1595422 2267 37%
c i 25.52 1490 160 0  32  225  156 26% 32 1595422 2266 37%
c i 26.24 1492 144 0  39  281  201 26% 32 1595422 2263 37%
c - 30.12 1438 139 1  40  300  218 26% 31 315874 2263 37%
c 
c  seconds     reductions  redundant   irredundant
c          MB      restarts       trail       variables
c             level   conflicts       glue         remaining
c 
c i 30.27 1408 138 1  40  305  221 26% 31 315874 2262 37%
c i 30.31 1408 135 1  40  311  226 26% 30 315874 2261 37%
c i 30.33 1408 134 1  40  314  228 26% 30 315874 2260 37%
c i 30.34 1408 133 1  40  315  228 26% 30 315874 2259 37%
c i 30.49 1408 125 1  40  344  253 27% 30 315874 2258 37%
c i 30.51 1408 123 1  40  350  258 27% 29 315874 2257 37%
c i 30.51 1408 122 1  40  351  258 27% 29 315874 2256 37%
c i 30.54 1408 120 1  40  360  265 27% 29 315874 2255 37%
c i 30.55 1408 117 1  40  371  275 27% 29 315874 2254 37%
c i 30.56 1408 116 1  40  375  278 27% 29 315874 2253 37%
c i 30.57 1408 115 1  40  378  280 27% 29 315874 2252 37%
c i 30.60 1408 115 1  40  381  281 27% 29 315874 2250 37%
c i 30.64 1408 115 1  40  402  299 27% 30 315874 2249 37%
c i 30.73 1408 111 1  42  433  325 27% 29 315874 2248 36%
c i 30.75 1408 110 1  42  438  327 27% 29 315874 2247 36%
c i 30.81 1408 108 1  42  447  334 27% 29 315874 2246 36%
c i 30.85 1408 104 1  42  469  351 27% 28 315874 2245 36%
c i 30.86 1408 103 1  42  470  351 27% 28 315874 2244 36%
c i 30.87 1408 103 1  42  472  352 27% 28 315874 2243 36%
c i 31.01 1408 106 1  45  518  393 27% 31 315874 2242 36%
c 
c  seconds     reductions  redundant   irredundant
c          MB      restarts       trail       variables
c             level   conflicts       glue         remaining
c 
c i 31.02 1408 106 1  46  520  394 27% 31 315874 2241 36%
c i 31.04 1408 106 1  47  525  398 27% 31 315874 2240 36%
c i 31.21 1408 106 1  56  559  425 27% 32 315874 2239 36%
c i 31.39 1408 105 1  60  575  440 27% 32 315874 2238 36%
c i 31.42 1408 105 1  61  585  445 27% 32 315874 2237 36%
c i 31.45 1408 103 1  64  598  454 27% 32 315874 2236 36%
c i 31.46 1408 103 1  65  601  455 27% 32 315874 2235 36%
c i 31.53 1408 101 1  67  618  470 27% 32 315874 2234 36%
c i 31.62 1408 98 1  67  671  512 27% 31 315874 2233 36%
c i 31.67 1408 96 1  67  690  527 27% 31 315874 2232 36%
c i 31.67 1408 95 1  67  695  530 27% 31 315874 2231 36%
c i 31.85 1408 89 1  70  794  605 27% 31 315874 2230 36%
c i 31.87 1408 88 1  73  818  624 27% 31 315874 2229 36%
c i 31.92 1408 87 1  75  840  642 27% 31 315874 2228 36%
c i 31.92 1408 87 1  76  845  646 27% 31 315874 2227 36%
c i 31.94 1408 86 1  78  864  660 27% 31 315874 2226 36%
c i 31.95 1408 85 1  79  887  677 27% 30 315874 2225 36%
c i 31.96 1408 85 1  79  894  680 27% 30 315874 2224 36%
c i 31.96 1408 84 1  79  906  690 27% 30 315874 2223 36%
c i 31.96 1408 84 1  79  913  696 27% 30 315874 2222 36%
c 
c  seconds    reductions  redundant   irredundant
c          MB     restarts       trail       variables
c            level   conflicts       glue         remaining
c 
c i 32.03 1408 83 1  85  946  724 27% 31 315874 2221 36%
c i 32.07 1408 84 1  86  962  738 27% 31 315874 2220 36%
c i 32.14 1408 84 1  90  974  748 27% 31 315874 2219 36%
c i 32.19 1408 84 1  93  994  767 27% 31 315874 2218 36%
c } 32.21 1408 85 1  94 1000  773 27% 31 315874 2218 36%
c [ 32.21 1408  0 1  94 1000  773  0% 0 315874 2218 36%
c i 32.22 1408 130 1  94 1002  774 31% 1 315874 2217 36%
c O 32.22 1408 89 1  94 1003  775 27% 2 315874 2217 36%
c i 32.32 1408 30 1  94 1012  783 30% 5 315874 2216 36%
c i 32.50 1409 23 1  94 1157  902 30% 17 315874 2215 36%
c i 32.50 1409 23 1  94 1168  910 30% 17 315874 2214 36%
c i 32.51 1409 22 1  94 1179  917 30% 17 315874 2213 36%
c i 32.52 1409 22 1  94 1197  926 30% 16 315874 2212 36%
c - 33.04 1483 22 2  94 1199  854 30% 16 315722 2212 36%
c i 33.08 1483 22 2  94 1218  868 30% 16 315722 2211 36%
c i 33.11 1483 22 2  94 1252  895 30% 15 315722 2210 36%
c i 33.11 1483 21 2  94 1253  895 30% 15 315722 2209 36%
c i 33.11 1483 21 2  94 1254  895 30% 15 315722 2208 36%
c i 33.11 1483 21 2  94 1256  896 30% 15 315722 2207 36%
c i 33.12 1483 21 2  94 1264  900 30% 15 315722 2206 36%
c 
c  seconds    reductions  redundant   irredundant
c          MB     restarts       trail       variables
c            level   conflicts       glue         remaining
c 
c i 33.13 1483 21 2  94 1281  914 30% 15 315722 2205 36%
c i 33.13 1483 21 2  94 1283  914 30% 15 315722 2204 36%
c i 33.13 1483 21 2  94 1286  915 30% 15 315722 2203 36%
c i 33.19 1483 20 2  94 1387  982 30% 15 315722 2202 36%
c i 33.19 1483 20 2  94 1388  982 30% 15 315722 2201 36%
c i 33.19 1483 20 2  94 1389  982 30% 15 315722 2200 36%
c i 33.19 1483 20 2  94 1390  982 30% 15 315722 2199 36%
c i 33.19 1483 19 2  94 1411  999 29% 14 315722 2198 36%
c i 33.19 1483 19 2  94 1412  999 29% 14 315722 2197 36%
c i 33.22 1483 19 2  94 1457 1037 29% 14 315722 2196 36%
c i 33.22 1483 19 2  94 1458 1037 29% 14 315722 2195 36%
c i 33.22 1483 19 2  94 1462 1039 29% 14 315722 2194 36%
c ] 33.23 1483 19 2  94 1474 1051 30% 14 315722 2194 36%
c 1 33.23 1483 19 2  94 1474 1051 30% 14 315722 2194 36%
c 
c --- [ writing output ] -----------------------------------------------------
c 
c writing simplified CNF to DIMACS file 'simp/33.cubes701.adj.simp1'
c * 33.23 1483 19 2  94 1474 1051 30% 14 315722 2194 36%
c opening file to write 'simp/33.cubes701.adj.simp1'
c writing 'p cnf 6160 315668' header
c closing file 'simp/33.cubes701.adj.simp1'
c after writing 117208284 bytes 111.8 MB
c wrote 315668 clauses in 0.90 seconds process time
c 
c --- [ writing extension ] --------------------------------------------------
c 
c writing extension stack to 'simp/33.cubes701.adj.ext1'
c opening file to write 'simp/33.cubes701.adj.ext1'
c closing file 'simp/33.cubes701.adj.ext1'
c after writing 12290 bytes 0.0 MB
c wrote 822 witnesses in 0.00 seconds process time
c 
c --- [ result ] -------------------------------------------------------------
c 
s SATISFIABLE
c 
c --- [ run-time profiling ] -------------------------------------------------
c 
c process time taken by individual solving procedures
c (percentage relative to process time for solving)
c 
c        19.50  141.95% parse
c        13.74  100.00% search
c        11.30   82.28% unstable
c         1.41   10.29% lucky
c         1.02    7.43% stable
c         0.00    0.00% simplify
c   =================================
c        13.74   40.24% solve
c 
c last line shows process time for solving
c (percentage relative to total process time)
c 
c --- [ statistics ] ---------------------------------------------------------
c 
c chronological:               561        38.06 %  of conflicts
c conflicts:                  1474       107.31    per second
c decisions:                 19608      1427.54    per second
c fixed:                       822        13.34 %  of all variables
c learned:                    1415        96.00 %  per conflict
c learned_lits:             159720       100.00 %  learned literals
c minimized:                     0         0.00 %  learned literals
c shrunken:                  73735        46.17 %  learned literals
c minishrunken:              13446         8.42 %  learned literals
c propagations:             257106         0.02 M  per second
c reduced:                      72         4.88 %  per conflict
c rephased:                      1      1474.00    interval
c restarts:                     94        15.68    interval
c stabilizing:                   1        32.16 %  of conflicts
c subsumed:                    199         0.01 %  of all clauses
c 
c seconds are measured in process time for solving
c 
c --- [ resources ] ----------------------------------------------------------
c 
c total process time since initialization:        34.14    seconds
c total real time since initialization:           34.83    seconds
c maximum resident set size of process:         1517.45    MB
c 
c --- [ shutting down ] ------------------------------------------------------
c 
c exit 10
WARNING! DIMACS header mismatch: wrong number of variables.
============================[ Problem Statistics ]=============================
|                                                                             |
|  Number of variables:          6120                                         |
|  Number of clauses:          315668                                         |
|  Parse time:                   1.56 s                                       |
|  Simplification time:          0.03 s                                       |
|                                                                             |
============================[ Search Statistics ]====================================================
| Conflicts |          ORIGINAL         |          LEARNT          | Num Sols |      SUBGRAPHS      |
|           |    Vars  Clauses Literals |    Limit  Clauses Lit/Cl |          | Canonical Noncanon. |
=====================================================================================================
|       208 |    6024   315776 26121583 |     2000      208     36 |        0 |        75       108 |
|       526 |    6024   315944 26124092 |     2000      526     22 |        0 |       263       276 |
|      1339 |    6023   316532 26132928 |     2000     1338     18 |        0 |       412       864 |
|      1856 |    6022   316712 26135584 |     2000     1854     20 |        0 |       501      1044 |
|      2742 |    6020   317092 26140553 |     3601     1742     24 |        0 |       593      1424 |
|      4780 |    5996   318371 26157879 |     5002     1982     13 |        0 |       992      2703 |
|      8039 |    5995   320491 26184827 |     6302     2741     18 |        0 |      1578      4823 |
|     12976 |    5991   323720 26226669 |     7552     4525     12 |        0 |      2387      8052 |
|     16983 |    5988   325165 26244895 |     8774     4757     17 |        0 |      2781      9497 |
|     24638 |    5988   328976 26290001 |     9988     8026     18 |        0 |      3498     13308 |
|     39385 |    5987   337957 26407002 |    12406    12190     23 |        0 |      4551     22289 |
=====================================================================================================
Number of solutions   : 0
Canonical subgraphs   : 4919           (149 /sec)
          order  3    : 1              (200000 /sec)
          order  4    : 1              (500000 /sec)
          order  5    : 1              (250000 /sec)
          order  6    : 1              (55556 /sec)
          order  7    : 2              (10526 /sec)
          order  8    : 6              (2603 /sec)
          order  9    : 16             (613 /sec)
          order 10    : 76             (216 /sec)
          order 11    : 480            (201 /sec)
          order 12    : 3425           (152 /sec)
          order 13    : 463            (154 /sec)
          order 14    : 267            (111 /sec)
          order 15    : 125            (80 /sec)
          order 16    : 27             (68 /sec)
          order 17    : 14             (80 /sec)
          order 18    : 10             (77 /sec)
          order 19    : 4              (73 /sec)
          order 20    : 0              (-nan /sec)
          order 21    : 0              (-nan /sec)
          order 22    : 0              (-nan /sec)
Noncanonical subgraphs: 28017          (971 /sec)
          order  3    : 0              (-nan /sec)
          order  4    : 0              (-nan /sec)
          order  5    : 0              (-nan /sec)
          order  6    : 0              (-nan /sec)
          order  7    : 0              (-nan /sec)
          order  8    : 0              (-nan /sec)
          order  9    : 0              (-nan /sec)
          order 10    : 0              (-nan /sec)
          order 11    : 0              (-nan /sec)
          order 12    : 0              (-nan /sec)
          order 13    : 25340          (963 /sec)
          order 14    : 1978           (1210 /sec)
          order 15    : 583            (871 /sec)
          order 16    : 112            (519 /sec)
          order 17    : 2              (4556 /sec)
          order 18    : 2              (217 /sec)
          order 19    : 0              (-nan /sec)
          order 20    : 0              (-nan /sec)
          order 21    : 0              (-nan /sec)
Canonicity checking   : 33.0292 s
Noncanonicity checking: 28.8428 s
Total canonicity time : 61.872 s
database reductions   : 10
restarts              : 153
conflicts             : 49682          (575 /sec)
decisions             : 101356         (0.00 % random) (1173 /sec)
propagations          : 5788071        (66971 /sec)
conflict literals     : 1298405        (53.64 % deleted)
actual reward         : 0.062800
Memory used           : 155.00 MB
CPU time              : 86.4262 s

UNSATISFIABLE
